row=7;
column=7;
Board=[|2,0,0,1,4,3,5|0,4,0,6,3,0,0|7,0,0,0,0,4,0|0,0,1,7,6,0,4|6,0,0,5,1,0,0|0,0,0,0,2,0,0|0,1,5,3,7,0,6|];
OE=[|0,1,0,1,0,1,1|1,0,0,0,1,1,1|1,0,1,0,1,0,1|1,0,1,1,0,1,0|0,1,0,1,1,1,0|1,1,1,0,0,0,1|0,1,1,1,1,0,0|];
